decision_x1=[0,2];
decision_x2=[0,2];
decision_x3=[0,2];
decision_x4=[0,2];
decision_x5=[0,2];
random_y1=[0,2];
constraint_x3_x2=[
0,0,8.1|
0,1,5|
0,2,4.5|
1,0,4.2|
1,1,8.9|
1,2,2.3|
2,0,8.2|
2,1,6.7|
2,2,3.2|
];
constraint_x4_x1=[
0,0,0.35|
0,1,7.4|
0,2,7.3|
1,0,3.7|
1,1,7.8|
1,2,0.3|
2,0,9.7|
2,1,4.2|
2,2,7.6|
];
constraint_x4_x2=[
0,0,5.2|
0,1,2.8|
0,2,6.7|
1,0,4.4|
1,1,6|
1,2,1.3|
2,0,2.4|
2,1,1.9|
2,2,4|
];
constraint_x5_x1=[
0,0,4.4|
0,1,1|
0,2,3.8|
1,0,4.2|
1,1,1.4|
1,2,3.2|
2,0,5.2|
2,1,2.1|
2,2,0.32|
];
constraint_x5_x4=[
0,0,4.2|
0,1,6.2|
0,2,0.86|
1,0,4.4|
1,1,5.4|
1,2,6|
2,0,8.2|
2,1,8.6|
2,2,0.88|
];
constraint_x1_y1=[
0,0,9.1|
0,1,3.8|
0,2,5.5|
1,0,2|
1,1,9.3|
1,2,3.2|
2,0,8.9|
2,1,6.2|
2,2,9|
];
initial_distribution_y1=[0.43,0.28,0.29];
transition_y1=[
0.35,0.37,0.29|
0.24,0.2,0.56|
0.62,0.21,0.17|
];
